c boolean__Z14set_or_clear_3bjj
p cnf 64 161
34 -2 0
35 -3 0
36 -4 0
37 -5 0
38 -6 0
39 -7 0
40 -8 0
41 -9 0
42 -10 0
43 -11 0
44 -12 0
45 -13 0
46 -14 0
47 -15 0
48 -16 0
49 -17 0
50 -18 0
51 -19 0
52 -20 0
53 -21 0
54 -22 0
55 -23 0
56 -24 0
57 -25 0
58 -26 0
59 -27 0
60 -28 0
61 -29 0
62 -30 0
63 -31 0
64 -32 0
65 -33 0
1 2 0
1 3 0
1 4 0
1 5 0
1 6 0
1 7 0
1 8 0
1 9 0
1 10 0
1 11 0
1 12 0
1 13 0
1 14 0
1 15 0
1 16 0
1 17 0
1 18 0
1 19 0
1 20 0
1 21 0
1 22 0
1 23 0
1 24 0
1 25 0
1 26 0
1 27 0
1 28 0
1 29 0
1 30 0
1 31 0
1 32 0
1 33 0
